NAME : kroE100-C-5-1-a.23611.tour
COMMENT : Length = 23611
COMMENT : Found by LKH-3 [Keld Helsgaun] Tue Jul 30 13:14:12 2024
TYPE : TOUR
DIMENSION : 100
TOUR_SECTION
1
5
42
90
48
68
38
33
22
39
43
86
19
94
18
24
29
100
78
53
34
6
70
37
77
85
96
11
2
4
82
92
27
67
87
41
75
13
55
91
93
30
66
31
9
57
80
10
60
50
97
65
8
72
44
52
14
89
81
71
61
73
16
79
26
46
3
47
83
69
51
98
59
95
36
28
23
64
62
56
15
20
49
84
17
99
45
54
25
40
35
88
63
58
32
12
76
7
21
74
-1
EOF
